Gurobi Optimizer version 9.1.2 build v9.1.2rc0 (linux64)
Thread count: 36 physical cores, 72 logical processors, using up to 32 threads
Optimize a model with 12 rows, 57 columns and 590 nonzeros
Model fingerprint: 0xf32eec78
Model has 47 quadratic constraints
Coefficient statistics:
  Matrix range     [2e-05, 3e+00]
  QMatrix range    [1e+00, 1e+00]
  QLMatrix range   [1e+00, 1e+00]
  Objective range  [8e-03, 7e-01]
  Bounds range     [1e+00, 1e+00]
  RHS range        [1e+00, 1e+00]
Presolve removed 9 rows and 0 columns

Continuous model is non-convex -- solving as a MIP.

Presolve removed 9 rows and 0 columns
Presolve time: 0.00s
Presolved: 189 rows, 57 columns, 443 nonzeros
Presolved model has 47 bilinear constraint(s)
Variable types: 57 continuous, 0 integer (0 binary)

Root relaxation: objective -1.743721e+00, 44 iterations, 0.00 seconds

    Nodes    |    Current Node    |     Objective Bounds      |     Work
 Expl Unexpl |  Obj  Depth IntInf | Incumbent    BestBd   Gap | It/Node Time

     0     0   -1.74372    0   38          -   -1.74372      -     -    0s
H    0     0                       0.6147548   -1.74372   384%     -    0s
     0     0   -1.64739    0    1    0.61475   -1.64739   368%     -    0s
H    0     0                      -1.6450460   -1.64739  0.14%     -    0s
     0     0     cutoff    0        -1.64505   -1.64505  0.00%     -    0s

Cutting planes:
  RLT: 25
  BQP: 3

Explored 1 nodes (76 simplex iterations) in 0.01 seconds
Thread count was 32 (of 72 available processors)

Solution count 2: -1.64505 0.614755 
No other solutions better than -1.64505

Optimal solution found (tolerance 1.00e-04)
Best objective -1.645045978473e+00, best bound -1.645045978473e+00, gap 0.0000%

User-callback calls 78, time in user-callback 0.00 sec
Gurobi Optimizer version 9.1.2 build v9.1.2rc0 (linux64)
Thread count: 36 physical cores, 72 logical processors, using up to 32 threads
Optimize a model with 24 rows, 120 columns and 2480 nonzeros
Model fingerprint: 0xfc7f67fa
Model has 100 quadratic constraints
Coefficient statistics:
  Matrix range     [8e-06, 4e+00]
  QMatrix range    [1e+00, 1e+00]
  QLMatrix range   [1e+00, 1e+00]
  Objective range  [6e-03, 1e+00]
  Bounds range     [1e+00, 1e+00]
  RHS range        [1e+00, 1e+00]
Presolve removed 18 rows and 0 columns

Continuous model is non-convex -- solving as a MIP.

Presolve removed 18 rows and 0 columns
Presolve time: 0.00s
Presolved: 406 rows, 120 columns, 1113 nonzeros
Presolved model has 100 bilinear constraint(s)
Variable types: 120 continuous, 0 integer (0 binary)

Root relaxation: objective -8.923275e+00, 130 iterations, 0.00 seconds

    Nodes    |    Current Node    |     Objective Bounds      |     Work
 Expl Unexpl |  Obj  Depth IntInf | Incumbent    BestBd   Gap | It/Node Time

     0     0   -8.92327    0   86          -   -8.92327      -     -    0s
H    0     0                       0.5666963   -8.92327  1675%     -    0s
     0     0   -6.62765    0   90    0.56670   -6.62765  1270%     -    0s
H    0     0                       0.4350228   -6.62765  1624%     -    0s
     0     0   -6.61021    0   90    0.43502   -6.61021  1620%     -    0s
     0     0   -5.89155    0   72    0.43502   -5.89155  1454%     -    0s
H    0     0                      -1.5636267   -5.89155   277%     -    0s
     0     0   -5.68036    0  100   -1.56363   -5.68036   263%     -    0s
     0     0   -5.42843    0  100   -1.56363   -5.42843   247%     -    0s
     0     0   -5.38866    0  100   -1.56363   -5.38866   245%     -    0s
     0     0   -5.32818    0   91   -1.56363   -5.32818   241%     -    0s
     0     0   -5.31896    0   91   -1.56363   -5.31896   240%     -    0s
     0     0   -5.31563    0  100   -1.56363   -5.31563   240%     -    0s
     0     0   -5.31418    0  100   -1.56363   -5.31418   240%     -    0s
     0     0   -5.31382    0  100   -1.56363   -5.31382   240%     -    0s
H    0     0                      -3.3266965   -5.31382  59.7%     -    0s
H    0     0                      -4.1431589   -5.31382  28.3%     -    0s
     0     2   -5.31382    0  100   -4.14316   -5.31382  28.3%     -    0s
*  602   238              25      -4.3414684   -4.76707  9.80%  34.0    0s
* 1052   282              21      -4.3667152   -4.43614  1.59%  26.0    0s
* 1274   189              24      -4.3667490   -4.40473  0.87%  22.8    0s
* 1288   189              24      -4.3674570   -4.40473  0.85%  22.7    0s
* 1575    27              22      -4.3674806   -4.36879  0.03%  19.5    0s
* 1677    16              23      -4.3677695   -4.36828  0.01%  18.4    0s
* 1685    16              23      -4.3679349   -4.36828  0.01%  18.3    0s

Cutting planes:
  RLT: 68
  BQP: 12
  PSD: 6

Explored 1746 nodes (31571 simplex iterations) in 0.52 seconds
Thread count was 32 (of 72 available processors)

Solution count 10: -4.36793 -4.36777 -4.36748 ... -1.56363

Optimal solution found (tolerance 1.00e-04)
Best objective -4.367934886345e+00, best bound -4.368275753285e+00, gap 0.0078%

User-callback calls 3745, time in user-callback 0.00 sec



objective value: -4.367934886344549
objective bound: -4.368275753285348
x_opt: [0.0, 1.0, 1.0, 1.0, 1.0, 0.0, 3.7692966152816365e-20, 0.0, 0.3374265239841198, 1.0, 0.0, 0.4499036202094088, 1.0, 0.9997113096769518, 1.0, 0.17626851095012283, 0.0, 0.0, 8.212831456577696e-18, 0.6089514935123991]
GUROBI solution time: 0.5246331691741943




